\ENCODING=ISO-8859-1
\Problem name: ilog.cplex

Minimize
 obj: 100000 x1 + 100000 x1 + 100000 x2 + 100000 x3 + 100000 x4 + 100000 x5
      + 100000 x6 + 100000 x7 + 100000 x8 + 100000 x9 + 100000 x10 + 100000 x11
      + 100000 x12 + 100000 x13 + 100000 x14 + 100000 x15 + 100000 x16
      + 100000 x17 + 100000 x18 + 100000 x19 + 100000 x20 + 100000 x21
      + 100000 x22 + 100000 x23 + 100000 x24 + 100000 x25 + 100000 x26
      + 100000 x27 + 100000 x28 + 100000 x29 + 100000 x30 + 100000 x31
      + 100000 x32 + 100000 x33 + 100000 x34 + 100000 x35 + 100000 x36
      + 100000 x37 + 100000 x38 + 100000 x39 + 100000 x40 + 100000 x41
      + 100000 x42 + 100000 x43 + 100000 x44 + 100000 x45 + 100000 x46
      + 100000 x47 + 100000 x48 + 100000 x49 + 100000 x50 + 100000 x51
      + 100000 x52 + 100000 x53 + 100000 x54 + 100000 x55 + 100000 x56
      + 100000 x57 + 100000 x58 + 100000 x59 + 100000 x60 + 100000 x61
      + 100000 x62 + 100000 x63 + 100000 x64 + 100000 x65 + 100000 x66
      + 100000 x67 + 100000 x68 + 100000 x69 + 100000 x70 + 100000 x71
      + 100000 x72 + 100000 x73 + 100000 x74 + 100000 x75 + 100000 x76
      + 100000 x77 + 100000 x78 + 100000 x79 + 100000 x80 + 100000 x81
      + 100000 x82 + 100000 x83 + 100000 x84 + 100000 x85 + 100000 x86
      + 100000 x87 + 100000 x88 + 100000 x89 + 100000 x90 + 100000 x91
      + 100000 x92 + 100000 x93 + 100000 x94 + 100000 x95 + 100000 x96
      + 100000 x97 + 100000 x98 + 100000 x99 + 100000 x100 + 100000 x101
      + 100000 x102 + 100000 x103 + 100000 x104 + 100000 x105 + 100000 x106
      + 100000 x107 + 100000 x108 + 100000 x109 + 100000 x110 + 100000 x111
      + 100000 x112 + 100000 x113 + 100000 x114 + 100000 x115 + 100000 x116
      + 100000 x117 + 100000 x118 + 100000 x119 + 100000 x120 + 100000 x121
      + 100000 x122 + 100000 x123 + 100000 x124 + 100000 x125 + 100000 x126
      + 100000 x127 + 100000 x128 + 100000 x129 + 100000 x130 + 100000 x131
      + 100000 x132 + 100000 x133 + 100000 x134 + 100000 x135 + 100000 x136
      + 100000 x137 + 100000 x138 + 100000 x139 + 100000 x140 + 100000 x141
      + 100000 x142 + 100000 x143 + 100000 x144 + 100000 x145 + 100000 x146
      + 100000 x147 + 100000 x148 + 100000 x149 + 100000 x150 + 100000 x151
      + 100000 x152 + 100000 x153 + 100000 x154 + 100000 x155 + 100000 x156
      + 100000 x157 + 100000 x158 + 100000 x159 + 100000 x160 + 100000 x161
      + 100000 x162 + 100000 x163 + 100000 x164 + 100000 x165 + 100000 x166
      + 100000 x167 + 100000 x168 + 100000 x169 + 100000 x170 + 100000 x171
      + 100000 x172 + 100000 x173 + 100000 x174 + 100000 x175 + 100000 x176
      + 100000 x177 + 100000 x178 + 100000 x179 + 100000 x180 + 100000 x181
      + 100000 x182 + 100000 x183 + 100000 x184 + 100000 x185 + 100000 x186
      + 100000 x187 + 100000 x188 + 100000 x189 + 100000 x190 + 100000 x191
      + 100000 x192 + 100000 x193 + 100000 x194 + 100000 x195 + 100000 x196
      + 100000 x197 + 100000 x198 + 100000 x199 + 100000 x200 + 100000 x201
      + 100000 x202 + 100000 x203 + 100000 x204 + 100000 x205 + 100000 x206
      + 100000 x207 + 100000 x208 + 100000 x209 + 100000 x210 + 100000 x211
      + 100000 x212 + 100000 x213 + 100000 x214 + 100000 x215 + 100000 x216
      + 100000 x217 + 100000 x218 + 100000 x219 + 100000 x220 + 100000 x221
      + 100000 x222 + 100000 x223 + 100000 x224 + 100000 x225
Subject To
 Duty_820604_on_day_0#0:   x1 + x226 + x228 + x229 + x231 + x232 + x233 + x234
                           + x237 + x238 + x239 + x241 + x242 + x243 + x246
                           >= 1
 Duty_820605_on_day_0#1:   x1 + x226 + x228 + x229 + x230 + x231 + x232 + x233
                           + x234 + x236 + x237 + x238 + x239 + x240 + x241
                           + x242 + x246 >= 1
 Duty_820606_on_day_0#2:   x2 + x226 + x229 + x230 + x231 + x232 + x233 + x234
                           + x236 + x239 + x240 + x241 + x242 >= 1
 Duty_820607_on_day_0#3:   x3 + x226 + x228 + x232 + x233 + x234 + x235 + x236
                           + x238 + x239 + x243 + x244 + x245 + x246 >= 1
 Duty_820601_on_day_0#4:   x4 + x229 + x231 + x232 + x233 + x234 + x236 + x237
                           + x238 + x241 + x242 + x243 + x246 >= 1
 Duty_820602_on_day_0#5:   x5 + x228 + x229 + x231 + x232 + x234 + x236 + x237
                           + x238 + x239 + x242 + x243 + x244 + x246 >= 1
 Duty_820603_on_day_0#6:   x6 + x226 + x227 + x228 + x229 + x231 + x232 + x234
                           + x237 + x238 + x239 + x241 + x242 + x243 + x246
                           >= 1
 Duty_820608_on_day_0#7:   x7 + x226 + x227 + x228 + x231 + x233 + x234 + x236
                           + x237 + x238 + x239 + x241 + x242 + x243 + x245
                           + x246 >= 1
 Duty_820609_on_day_0#8:   x8 + x226 + x228 + x229 + x231 + x233 + x236 + x237
                           + x239 + x241 + x242 + x243 >= 1
 Duty_820610_on_day_0#9:   x9 + x226 + x228 + x229 + x232 + x233 + x235 + x236
                           + x237 + x238 + x241 + x243 + x246 >= 1
 Duty_820429_on_day_1#10:  x10 + x227 + x230 + x231 + x232 + x235 + x237 + x240
                           + x242 + x243 + x244 + x245 >= 1
 Duty_820431_on_day_1#11:  x11 + x226 + x228 + x229 + x231 + x232 + x233 + x234
                           + x236 + x237 + x238 + x239 + x241 + x242 + x243
                           + x246 >= 1
 Duty_820425_on_day_1#12:  x12 + x226 + x228 + x229 + x230 + x234 + x235 + x236
                           + x240 + x241 + x244 + x245 >= 1
 Duty_820427_on_day_1#13:  x13 + x227 + x233 + x238 + x239 + x246 >= 1
 Duty_820420_on_day_1#14:  x14 + x227 + x230 + x235 + x240 + x244 + x245 >= 1
 Duty_820421_on_day_1#15:  x15 + x226 + x228 + x229 + x231 + x232 + x233 + x234
                           + x236 + x237 + x238 + x239 + x241 + x242 + x243
                           + x246 >= 1
 Duty_820422_on_day_1#16:  x16 + x227 + x230 + x235 + x240 + x244 + x245 >= 1
 Duty_820423_on_day_1#17:  x17 + x226 + x228 + x229 + x231 + x232 + x233 + x234
                           + x236 + x237 + x238 + x239 + x241 + x242 + x243
                           + x246 >= 1
 Duty_820416_on_day_1#18:  x18 + x226 + x227 + x229 + x230 + x231 + x233 + x234
                           + x235 + x236 + x240 + x241 + x242 + x244 + x245
                           >= 1
 Duty_820417_on_day_1#19:  x19 + x226 + x228 + x229 + x231 + x232 + x233 + x234
                           + x236 + x237 + x238 + x239 + x241 + x242 + x243
                           + x246 >= 1
 Duty_820418_on_day_1#20:  x20 + x227 + x230 + x235 + x240 + x244 + x245 >= 1
 Duty_820419_on_day_1#21:  x21 + x226 + x228 + x229 + x231 + x232 + x233 + x234
                           + x236 + x237 + x238 + x239 + x241 + x242 + x243
                           + x246 >= 1
 Duty_820436_on_day_1#22:  x22 + x228 + x230 + x232 + x234 + x237 + x239 + x240
                           + x241 + x242 + x243 + x244 >= 1
 Duty_820432_on_day_1#23:  x23 + x227 + x230 + x234 + x236 + x237 + x238 + x239
                           + x241 + x242 + x243 + x244 + x246 >= 1
 Duty_820433_on_day_1#24:  x24 + x226 + x228 + x229 + x231 + x232 + x233 + x234
                           + x236 + x237 + x238 + x239 + x241 + x242 + x243
                           + x246 >= 1
 Duty_820434_on_day_1#25:  x25 + x228 + x229 + x232 + x238 + x239 + x245 >= 1
 Duty_820435_on_day_1#26:  x26 + x226 + x228 + x229 + x231 + x232 + x233 + x234
                           + x236 + x237 + x238 + x239 + x241 + x242 + x243
                           + x246 >= 1
 Duty_820456_on_day_1#27:  x27 + x227 + x228 + x230 + x232 + x233 + x234 + x236
                           + x237 + x238 + x240 + x241 + x243 + x244 + x245
                           + x246 >= 1
 Duty_820457_on_day_1#28:  x28 + x227 + x228 + x229 + x230 + x233 + x235 + x238
                           + x239 + x240 + x242 + x243 >= 1
 Duty_820452_on_day_1#29:  x29 + x226 + x228 + x231 + x236 + x237 + x238 + x239
                           + x240 + x241 + x242 + x245 >= 1
 Duty_820453_on_day_1#30:  x30 + x226 + x229 + x231 + x234 + x235 + x242 + x243
                           + x244 + x246 >= 1
 Duty_820454_on_day_1#31:  x31 + x226 + x227 + x230 + x232 + x236 + x237 + x239
                           + x241 + x245 >= 1
 Duty_820455_on_day_1#32:  x32 + x229 + x231 + x232 + x233 + x234 + x235 + x244
                           + x246 >= 1
 Duty_820451_on_day_1#33:  x33 + x227 + x230 + x235 + x240 + x244 + x245 >= 1
 Duty_820412_on_day_1#34:  x34 + x226 + x227 + x229 + x231 + x232 + x234 + x236
                           + x238 + x242 + x243 + x246 >= 1
 Duty_820413_on_day_1#35:  x35 + x226 + x228 + x229 + x231 + x232 + x233 + x234
                           + x236 + x237 + x238 + x239 + x241 + x242 + x243
                           + x246 >= 1
 Duty_820414_on_day_1#36:  x36 + x226 + x228 + x230 + x231 + x232 + x235 + x237
                           + x239 + x244 + x245 + x246 >= 1
 Duty_820415_on_day_1#37:  x37 + x226 + x228 + x229 + x231 + x232 + x233 + x234
                           + x236 + x237 + x238 + x239 + x241 + x242 + x243
                           + x246 >= 1
 Duty_820408_on_day_1#38:  x38 + x232 + x233 + x234 + x236 + x240 + x241 + x243
                           + x244 + x245 >= 1
 Duty_820409_on_day_1#39:  x39 + x226 + x228 + x229 + x231 + x232 + x233 + x234
                           + x236 + x237 + x238 + x239 + x241 + x242 + x243
                           + x246 >= 1
 Duty_820410_on_day_1#40:  x40 + x227 + x230 + x231 + x233 + x235 + x237 + x238
                           + x240 >= 1
 Duty_820411_on_day_1#41:  x41 + x226 + x228 + x229 + x231 + x232 + x233 + x234
                           + x236 + x237 + x238 + x239 + x241 + x242 + x243
                           + x246 >= 1
 Duty_820404_on_day_1#42:  x42 + x226 + x227 + x233 + x235 + x243 + x245 + x246
                           >= 1
 Duty_820405_on_day_1#43:  x43 + x226 + x228 + x229 + x231 + x232 + x233 + x234
                           + x236 + x237 + x238 + x239 + x241 + x242 + x243
                           + x246 >= 1
 Duty_820406_on_day_1#44:  x44 + x226 + x228 + x229 + x235 + x238 + x240 + x241
                           + x242 + x245 + x246 >= 1
 Duty_820407_on_day_1#45:  x45 + x226 + x228 + x229 + x231 + x232 + x233 + x234
                           + x236 + x237 + x238 + x239 + x241 + x242 + x243
                           + x246 >= 1
 Duty_820401_on_day_1#46:  x46 + x226 + x228 + x229 + x231 + x232 + x233 + x234
                           + x236 + x237 + x238 + x239 + x241 + x242 + x243
                           + x246 >= 1
 Duty_820402_on_day_1#47:  x47 + x227 + x228 + x229 + x230 + x231 + x233 + x235
                           + x236 + x237 + x239 + x240 + x244 >= 1
 Duty_820403_on_day_1#48:  x48 + x226 + x228 + x229 + x231 + x232 + x233 + x234
                           + x236 + x237 + x238 + x239 + x241 + x242 + x243
                           + x246 >= 1
 Duty_820429_on_day_2#49:  x49 + x226 + x228 + x229 + x231 + x232 + x233 + x234
                           + x236 + x237 + x238 + x239 + x241 + x242 + x243
                           + x246 >= 1
 Duty_820431_on_day_2#50:  x50 + x226 + x228 + x231 + x232 + x233 + x234 + x236
                           + x237 + x238 + x239 + x241 + x242 + x243 + x246
                           >= 1
 Duty_820425_on_day_2#51:  x51 + x226 + x228 + x229 + x231 + x232 + x233 + x234
                           + x236 + x237 + x238 + x239 + x241 + x242 + x243
                           + x246 >= 1
 Duty_820427_on_day_2#52:  x52 + x226 + x228 + x229 + x231 + x232 + x233 + x234
                           + x236 + x237 + x238 + x239 + x241 + x242 + x243
                           + x246 >= 1
 Duty_820420_on_day_2#53:  x53 + x226 + x227 + x228 + x232 + x240 + x243 + x244
                           + x245 >= 1
 Duty_820421_on_day_2#54:  x54 + x226 + x228 + x229 + x231 + x232 + x234 + x236
                           + x237 + x238 + x241 + x242 + x243 + x244 + x246
                           >= 1
 Duty_820422_on_day_2#55:  x55 + x227 + x229 + x230 + x231 + x233 + x234 + x235
                           + x236 + x237 + x239 + x240 + x244 + x245 + x246
                           >= 1
 Duty_820423_on_day_2#56:  x56 + x226 + x228 + x229 + x230 + x231 + x232 + x233
                           + x234 + x236 + x237 + x238 + x239 + x241 + x242
                           + x243 + x246 >= 1
 Duty_820416_on_day_2#57:  x57 + x227 + x230 + x237 + x239 + x243 + x244 + x245
                           + x246 >= 1
 Duty_820417_on_day_2#58:  x58 + x226 + x228 + x229 + x231 + x232 + x233 + x234
                           + x236 + x237 + x238 + x239 + x241 + x242 + x243
                           >= 1
 Duty_820418_on_day_2#59:  x59 + x230 + x235 + x238 + x241 + x242 >= 1
 Duty_820419_on_day_2#60:  x60 + x226 + x227 + x228 + x229 + x231 + x232 + x233
                           + x234 + x236 + x237 + x238 + x239 + x240 + x241
                           + x242 + x243 + x246 >= 1
 Duty_820436_on_day_2#61:  x61 + x226 + x227 + x228 + x229 + x235 + x237 + x238
                           + x240 + x243 + x244 + x245 >= 1
 Duty_820432_on_day_2#62:  x62 + x227 + x228 + x229 + x230 + x231 + x234 + x235
                           + x240 + x244 + x245 >= 1
 Duty_820433_on_day_2#63:  x63 + x226 + x228 + x229 + x231 + x232 + x233 + x234
                           + x236 + x237 + x238 + x239 + x241 + x242 + x243
                           + x246 >= 1
 Duty_820434_on_day_2#64:  x64 + x227 + x228 + x230 + x232 + x235 + x236 + x239
                           + x244 >= 1
 Duty_820435_on_day_2#65:  x65 + x226 + x228 + x229 + x231 + x232 + x233 + x234
                           + x236 + x237 + x239 + x241 + x242 + x243 + x246
                           >= 1
 Duty_820456_on_day_2#66:  x66 + x227 + x230 + x232 + x233 + x236 + x237 + x239
                           + x240 + x241 + x243 + x244 + x245 >= 1
 Duty_820457_on_day_2#67:  x67 + x226 + x234 + x235 + x238 + x240 + x244 >= 1
 Duty_820452_on_day_2#68:  x68 + x228 + x229 + x230 + x231 + x235 + x242 + x243
                           + x245 + x246 >= 1
 Duty_820453_on_day_2#69:  x69 + x227 + x232 + x233 + x235 + x236 + x237 + x238
                           + x245 >= 1
 Duty_820454_on_day_2#70:  x70 + x226 + x227 + x229 + x230 + x231 + x240 + x241
                           + x242 + x244 + x245 >= 1
 Duty_820455_on_day_2#71:  x71 + x227 + x228 + x230 + x234 + x235 + x239 + x240
                           + x244 + x246 >= 1
 Duty_820451_on_day_2#72:  x72 + x227 + x230 + x235 + x240 + x244 + x245 >= 1
 Duty_820412_on_day_2#73:  x73 + x227 + x230 + x231 + x233 + x237 + x241 + x244
                           + x245 >= 1
 Duty_820413_on_day_2#74:  x74 + x226 + x228 + x229 + x233 + x234 + x236 + x237
                           + x238 + x239 + x241 + x242 + x243 + x246 >= 1
 Duty_820414_on_day_2#75:  x75 + x227 + x235 + x238 + x240 + x241 + x245 + x246
                           >= 1
 Duty_820415_on_day_2#76:  x76 + x226 + x228 + x229 + x231 + x232 + x233 + x234
                           + x236 + x237 + x238 + x239 + x241 + x242 + x243
                           + x246 >= 1
 Duty_820408_on_day_2#77:  x77 + x227 + x230 + x231 + x232 + x235 + x236 + x240
                           + x245 >= 1
 Duty_820409_on_day_2#78:  x78 + x228 + x229 + x231 + x232 + x233 + x236 + x237
                           + x238 + x239 + x241 + x242 + x243 + x246 >= 1
 Duty_820410_on_day_2#79:  x79 + x229 + x230 + x233 + x234 + x236 + x239 + x240
                           + x244 + x245 >= 1
 Duty_820411_on_day_2#80:  x80 + x226 + x228 + x229 + x231 + x232 + x233 + x234
                           + x236 + x237 + x238 + x239 + x241 + x242 + x243
                           + x245 + x246 >= 1
 Duty_820404_on_day_2#81:  x81 + x227 + x230 + x234 + x235 + x240 + x241 + x242
                           + x244 + x245 + x246 >= 1
 Duty_820405_on_day_2#82:  x82 + x226 + x229 + x231 + x232 + x233 + x234 + x235
                           + x236 + x237 + x238 + x239 + x241 + x242 + x243
                           + x246 >= 1
 Duty_820406_on_day_2#83:  x83 + x226 + x230 + x232 + x235 + x240 + x242 + x243
                           >= 1
 Duty_820407_on_day_2#84:  x84 + x226 + x228 + x229 + x231 + x232 + x233 + x234
                           + x236 + x238 + x239 + x241 + x242 + x243 + x246
                           >= 1
 Duty_820401_on_day_2#85:  x85 + x226 + x228 + x229 + x231 + x232 + x233 + x234
                           + x236 + x237 + x238 + x239 + x243 + x246 >= 1
 Duty_820402_on_day_2#86:  x86 + x226 + x233 + x235 + x238 + x240 + x242 + x244
                           >= 1
 Duty_820403_on_day_2#87:  x87 + x226 + x228 + x229 + x231 + x232 + x233 + x234
                           + x237 + x238 + x239 + x241 + x242 + x246 >= 1
 Duty_820429_on_day_3#88:  x88 + x226 + x227 + x230 + x232 + x234 + x239 + x240
                           + x242 + x243 + x246 >= 1
 Duty_820431_on_day_3#89:  x89 + x226 + x228 + x229 + x231 + x232 + x233 + x234
                           + x235 + x236 + x237 + x238 + x239 + x242 + x243
                           + x246 >= 1
 Duty_820425_on_day_3#90:  x90 + x228 + x229 + x231 + x235 + x236 + x237 + x238
                           + x240 + x244 + x245 >= 1
 Duty_820427_on_day_3#91:  x91 + x227 + x230 + x233 + x235 + x241 + x244 + x245
                           >= 1
 Duty_820420_on_day_3#92:  x92 + x227 + x228 + x232 + x236 + x237 + x238 + x240
                           + x242 + x244 >= 1
 Duty_820421_on_day_3#93:  x93 + x226 + x228 + x229 + x231 + x232 + x233 + x234
                           + x236 + x237 + x238 + x239 + x241 + x242 + x243
                           + x246 >= 1
 Duty_820422_on_day_3#94:  x94 + x226 + x230 + x235 + x241 + x245 + x246 >= 1
 Duty_820423_on_day_3#95:  x95 + x226 + x228 + x229 + x231 + x232 + x233 + x234
                           + x236 + x237 + x238 + x239 + x241 + x242 + x243
                           + x244 + x246 >= 1
 Duty_820416_on_day_3#96:  x96 + x227 + x230 + x231 + x233 + x235 + x236 + x240
                           + x244 >= 1
 Duty_820417_on_day_3#97:  x97 + x226 + x228 + x231 + x232 + x233 + x234 + x237
                           + x238 + x239 + x241 + x242 + x243 + x246 >= 1
 Duty_820418_on_day_3#98:  x98 + x227 + x229 + x230 + x231 + x233 + x234 + x235
                           + x239 + x240 + x243 + x244 + x245 >= 1
 Duty_820419_on_day_3#99:  x99 + x226 + x228 + x229 + x231 + x232 + x233 + x234
                           + x236 + x237 + x238 + x239 + x241 + x242 + x243
                           + x246 >= 1
 Duty_820436_on_day_3#100: x100 + x226 + x227 + x228 + x230 + x231 + x234
                           + x235 + x240 + x241 + x245 + x246 >= 1
 Duty_820432_on_day_3#101: x101 + x226 + x233 + x235 + x238 + x239 + x241
                           + x242 + x244 + x245 >= 1
 Duty_820433_on_day_3#102: x102 + x226 + x227 + x228 + x229 + x231 + x232
                           + x233 + x234 + x236 + x237 + x239 + x241 + x242
                           + x243 + x246 >= 1
 Duty_820434_on_day_3#103: x103 + x227 + x230 + x232 + x235 + x236 + x240
                           + x243 + x244 + x245 >= 1
 Duty_820435_on_day_3#104: x104 + x228 + x229 + x231 + x233 + x234 + x236
                           + x237 + x238 + x239 + x241 + x242 + x243 + x246
                           >= 1
 Duty_820456_on_day_3#105: x105 + x227 + x230 + x235 + x240 + x244 + x245 >= 1
 Duty_820457_on_day_3#106: x106 + x227 + x230 + x235 + x240 + x244 + x245 >= 1
 Duty_820452_on_day_3#107: x107 + x227 + x230 + x235 + x240 + x244 + x245 >= 1
 Duty_820453_on_day_3#108: x108 + x227 + x230 + x235 + x240 + x244 + x245 >= 1
 Duty_820454_on_day_3#109: x109 + x227 + x230 + x235 + x240 + x244 + x245 >= 1
 Duty_820455_on_day_3#110: x110 + x227 + x230 + x235 + x240 + x244 + x245 >= 1
 Duty_820451_on_day_3#111: x111 + x226 + x228 + x229 + x231 + x232 + x233
                           + x234 + x236 + x237 + x238 + x239 + x241 + x242
                           + x243 + x246 >= 1
 Duty_820412_on_day_3#112: x112 + x227 + x228 + x229 + x230 + x235 + x240
                           + x242 + x244 + x245 >= 1
 Duty_820413_on_day_3#113: x113 + x226 + x228 + x229 + x231 + x232 + x233
                           + x234 + x236 + x237 + x238 + x239 + x241 + x242
                           + x243 >= 1
 Duty_820414_on_day_3#114: x114 + x227 + x229 + x230 + x240 + x245 >= 1
 Duty_820415_on_day_3#115: x115 + x226 + x228 + x229 + x231 + x232 + x234
                           + x236 + x237 + x238 + x239 + x241 + x242 + x243
                           + x245 + x246 >= 1
 Duty_820408_on_day_3#116: x116 + x227 + x229 + x233 + x235 + x237 + x240
                           + x242 + x244 + x245 >= 1
 Duty_820409_on_day_3#117: x117 + x226 + x229 + x230 + x231 + x232 + x233
                           + x236 + x237 + x238 + x239 + x241 + x242 + x243
                           + x246 >= 1
 Duty_820410_on_day_3#118: x118 + x230 + x231 + x232 + x235 + x237 + x240
                           + x243 >= 1
 Duty_820411_on_day_3#119: x119 + x226 + x228 + x229 + x231 + x232 + x233
                           + x234 + x236 + x237 + x238 + x239 + x241 + x246
                           >= 1
 Duty_820404_on_day_3#120: x120 + x227 + x235 + x237 + x238 + x244 + x246 >= 1
 Duty_820405_on_day_3#121: x121 + x226 + x228 + x229 + x232 + x233 + x234
                           + x236 + x237 + x238 + x239 + x241 + x242 + x243
                           + x246 >= 1
 Duty_820406_on_day_3#122: x122 + x226 + x228 + x230 + x234 + x239 + x240
                           + x241 + x243 + x244 + x245 >= 1
 Duty_820407_on_day_3#123: x123 + x226 + x228 + x229 + x231 + x232 + x233
                           + x234 + x236 + x237 + x238 + x241 + x242 + x243
                           + x246 >= 1
 Duty_820401_on_day_3#124: x124 + x226 + x228 + x229 + x231 + x232 + x233
                           + x234 + x236 + x237 + x238 + x239 + x240 + x241
                           + x242 + x243 + x246 >= 1
 Duty_820402_on_day_3#125: x125 + x227 + x230 + x232 + x234 + x236 + x238
                           + x239 + x244 + x245 + x246 >= 1
 Duty_820403_on_day_3#126: x126 + x226 + x228 + x229 + x231 + x232 + x233
                           + x234 + x236 + x238 + x239 + x241 + x242 + x243
                           + x246 >= 1
 Duty_820429_on_day_4#127: x127 + x228 + x229 + x230 + x232 + x234 + x236
                           + x237 + x240 + x241 + x246 >= 1
 Duty_820431_on_day_4#128: x128 + x226 + x228 + x229 + x231 + x232 + x233
                           + x234 + x236 + x237 + x238 + x239 + x241 + x242
                           + x243 + x246 >= 1
 Duty_820425_on_day_4#129: x129 + x226 + x228 + x229 + x231 + x233 + x234
                           + x236 + x237 + x238 + x239 + x241 + x242 + x243
                           + x244 >= 1
 Duty_820427_on_day_4#130: x130 + x226 + x227 + x231 + x232 + x233 + x235
                           + x238 + x239 + x242 + x243 + x245 + x246 >= 1
 Duty_820420_on_day_4#131: x131 + x227 + x230 + x235 + x240 + x244 + x245 >= 1
 Duty_820421_on_day_4#132: x132 + x226 + x228 + x229 + x231 + x232 + x233
                           + x234 + x236 + x237 + x238 + x239 + x241 + x242
                           + x243 + x246 >= 1
 Duty_820422_on_day_4#133: x133 + x227 + x230 + x235 + x240 + x244 + x245 >= 1
 Duty_820423_on_day_4#134: x134 + x226 + x228 + x229 + x231 + x232 + x233
                           + x234 + x236 + x237 + x238 + x239 + x241 + x242
                           + x243 + x246 >= 1
 Duty_820416_on_day_4#135: x135 + x230 + x231 + x232 + x233 + x234 + x235
                           + x236 + x237 + x239 + x240 + x241 + x244 >= 1
 Duty_820417_on_day_4#136: x136 + x226 + x228 + x229 + x231 + x232 + x233
                           + x234 + x236 + x237 + x238 + x239 + x241 + x242
                           + x243 + x246 >= 1
 Duty_820418_on_day_4#137: x137 + x227 + x230 + x235 + x240 + x244 + x245 >= 1
 Duty_820419_on_day_4#138: x138 + x226 + x228 + x229 + x231 + x232 + x233
                           + x234 + x236 + x237 + x238 + x239 + x241 + x242
                           + x243 + x246 >= 1
 Duty_820436_on_day_4#139: x139 + x226 + x233 + x234 + x235 + x236 + x237
                           + x240 + x241 >= 1
 Duty_820432_on_day_4#140: x140 + x226 + x227 + x229 + x230 + x231 + x232
                           + x238 + x240 + x242 + x243 + x244 + x245 + x246
                           >= 1
 Duty_820433_on_day_4#141: x141 + x226 + x228 + x229 + x231 + x232 + x233
                           + x234 + x236 + x237 + x238 + x239 + x241 + x242
                           + x243 + x246 >= 1
 Duty_820434_on_day_4#142: x142 + x228 + x229 + x230 + x231 + x234 + x236
                           + x239 + x243 + x244 + x245 >= 1
 Duty_820435_on_day_4#143: x143 + x226 + x228 + x229 + x231 + x232 + x233
                           + x234 + x236 + x237 + x238 + x239 + x241 + x242
                           + x243 + x246 >= 1
 Duty_820456_on_day_4#144: x144 + x230 + x233 + x235 + x237 + x238 + x240
                           + x241 + x245 + x246 >= 1
 Duty_820457_on_day_4#145: x145 + x229 + x236 + x239 + x244 + x245 >= 1
 Duty_820452_on_day_4#146: x146 + x227 + x231 + x233 + x235 + x241 + x244
                           + x246 >= 1
 Duty_820453_on_day_4#147: x147 + x227 + x228 + x229 + x230 + x234 + x235
                           + x237 + x240 + x245 >= 1
 Duty_820454_on_day_4#148: x148 + x226 + x227 + x230 + x232 + x235 + x239
                           + x240 + x242 + x243 + x244 + x245 >= 1
 Duty_820455_on_day_4#149: x149 + x226 + x227 + x228 + x230 + x231 + x232
                           + x234 + x236 + x238 + x240 + x242 + x243 + x244
                           >= 1
 Duty_820451_on_day_4#150: x150 + x227 + x230 + x235 + x240 + x244 + x245 >= 1
 Duty_820412_on_day_4#151: x151 + x227 + x228 + x230 + x239 + x240 + x243
                           + x244 + x245 + x246 >= 1
 Duty_820413_on_day_4#152: x152 + x226 + x228 + x229 + x231 + x232 + x233
                           + x234 + x236 + x237 + x238 + x239 + x241 + x242
                           + x243 + x246 >= 1
 Duty_820414_on_day_4#153: x153 + x230 + x232 + x238 + x239 + x240 + x241
                           + x242 >= 1
 Duty_820415_on_day_4#154: x154 + x226 + x228 + x229 + x231 + x232 + x233
                           + x234 + x236 + x237 + x238 + x239 + x241 + x242
                           + x243 + x246 >= 1
 Duty_820408_on_day_4#155: x155 + x227 + x231 + x233 + x235 + x244 + x245 >= 1
 Duty_820409_on_day_4#156: x156 + x226 + x228 + x229 + x231 + x232 + x233
                           + x234 + x236 + x237 + x238 + x239 + x241 + x242
                           + x243 + x246 >= 1
 Duty_820410_on_day_4#157: x157 + x227 + x228 + x230 + x235 + x238 + x242
                           + x243 + x245 >= 1
 Duty_820411_on_day_4#158: x158 + x226 + x228 + x229 + x231 + x232 + x233
                           + x234 + x236 + x237 + x238 + x239 + x241 + x242
                           + x243 + x246 >= 1
 Duty_820404_on_day_4#159: x159 + x227 + x230 + x232 + x233 + x235 + x237
                           + x240 + x242 + x244 + x245 + x246 >= 1
 Duty_820405_on_day_4#160: x160 + x226 + x228 + x229 + x231 + x232 + x233
                           + x234 + x236 + x237 + x238 + x239 + x241 + x242
                           + x243 + x246 >= 1
 Duty_820406_on_day_4#161: x161 + x226 + x227 + x228 + x229 + x234 + x235
                           + x236 + x237 + x244 + x246 >= 1
 Duty_820407_on_day_4#162: x162 + x226 + x228 + x229 + x231 + x232 + x233
                           + x234 + x236 + x237 + x238 + x239 + x241 + x242
                           + x243 + x246 >= 1
 Duty_820401_on_day_4#163: x163 + x226 + x228 + x229 + x231 + x232 + x233
                           + x234 + x236 + x237 + x238 + x239 + x241 + x242
                           + x243 + x246 >= 1
 Duty_820402_on_day_4#164: x164 + x226 + x227 + x229 + x235 + x238 + x240
                           + x241 + x245 >= 1
 Duty_820403_on_day_4#165: x165 + x226 + x228 + x229 + x231 + x232 + x233
                           + x234 + x236 + x237 + x238 + x239 + x241 + x242
                           + x243 + x246 >= 1
 Duty_820429_on_day_5#166: x166 + x227 + x230 + x233 + x234 + x240 + x244
                           + x245 + x246 >= 1
 Duty_820431_on_day_5#167: x167 + x226 + x228 + x229 + x231 + x232 + x233
                           + x234 + x236 + x237 + x238 + x239 + x241 + x242
                           + x243 + x246 >= 1
 Duty_820425_on_day_5#168: x168 + x226 + x232 + x235 + x237 + x238 + x239
                           + x243 + x244 + x245 >= 1
 Duty_820427_on_day_5#169: x169 + x227 + x228 + x229 + x230 + x231 + x235
                           + x236 + x240 + x241 + x242 >= 1
 Duty_820420_on_day_5#170: x170 + x227 + x230 + x235 + x240 + x244 + x245 >= 1
 Duty_820421_on_day_5#171: x171 + x226 + x228 + x229 + x231 + x232 + x233
                           + x234 + x236 + x237 + x238 + x239 + x241 + x242
                           + x243 + x246 >= 1
 Duty_820422_on_day_5#172: x172 + x227 + x230 + x235 + x240 + x244 + x245 >= 1
 Duty_820423_on_day_5#173: x173 + x226 + x228 + x229 + x231 + x232 + x233
                           + x234 + x236 + x237 + x238 + x239 + x241 + x242
                           + x243 + x246 >= 1
 Duty_820416_on_day_5#174: x174 + x226 + x229 + x230 + x231 + x234 + x238
                           + x241 + x244 + x245 >= 1
 Duty_820417_on_day_5#175: x175 + x226 + x228 + x229 + x231 + x232 + x233
                           + x234 + x236 + x237 + x238 + x239 + x241 + x242
                           + x243 + x246 >= 1
 Duty_820418_on_day_5#176: x176 + x227 + x230 + x235 + x240 + x244 + x245 >= 1
 Duty_820419_on_day_5#177: x177 + x226 + x228 + x229 + x231 + x232 + x233
                           + x234 + x236 + x237 + x238 + x239 + x241 + x242
                           + x243 + x246 >= 1
 Duty_820436_on_day_5#178: x178 + x227 + x230 + x235 + x240 + x243 + x244
                           + x245 >= 1
 Duty_820432_on_day_5#179: x179 + x227 + x229 + x230 + x231 + x235 + x236
                           + x237 + x240 + x244 + x245 >= 1
 Duty_820433_on_day_5#180: x180 + x226 + x228 + x229 + x231 + x232 + x233
                           + x234 + x236 + x237 + x238 + x239 + x241 + x242
                           + x243 + x246 >= 1
 Duty_820434_on_day_5#181: x181 + x227 + x228 + x230 + x236 + x237 + x240
                           + x244 + x245 + x246 >= 1
 Duty_820435_on_day_5#182: x182 + x226 + x228 + x229 + x231 + x232 + x233
                           + x234 + x236 + x237 + x238 + x239 + x241 + x242
                           + x243 + x246 >= 1
 Duty_820456_on_day_5#183: x183 + x228 + x230 + x233 + x235 + x238 + x240
                           + x243 + x244 + x245 >= 1
 Duty_820457_on_day_5#184: x184 + x226 + x227 + x229 + x232 + x233 + x237
                           + x238 + x239 + x242 >= 1
 Duty_820452_on_day_5#185: x185 + x226 + x227 + x230 + x234 + x236 + x239
                           + x244 + x246 >= 1
 Duty_820453_on_day_5#186: x186 + x227 + x229 + x230 + x231 + x232 + x235
                           + x236 + x240 + x241 + x243 + x244 + x245 >= 1
 Duty_820454_on_day_5#187: x187 + x227 + x231 + x235 + x237 + x240 + x244
                           + x245 + x246 >= 1
 Duty_820455_on_day_5#188: x188 + x228 + x230 + x234 + x235 + x240 + x241
                           + x242 + x245 >= 1
 Duty_820451_on_day_5#189: x189 + x227 + x230 + x235 + x240 + x244 + x245 >= 1
 Duty_820412_on_day_5#190: x190 + x226 + x227 + x228 + x235 + x237 + x242
                           + x245 >= 1
 Duty_820413_on_day_5#191: x191 + x226 + x228 + x229 + x231 + x232 + x233
                           + x234 + x236 + x237 + x238 + x239 + x241 + x242
                           + x243 + x246 >= 1
 Duty_820414_on_day_5#192: x192 + x228 + x230 + x232 + x233 + x235 + x236
                           + x238 + x239 + x240 + x241 + x245 >= 1
 Duty_820415_on_day_5#193: x193 + x226 + x228 + x229 + x231 + x232 + x233
                           + x234 + x236 + x237 + x238 + x239 + x241 + x242
                           + x243 + x246 >= 1
 Duty_820408_on_day_5#194: x194 + x226 + x227 + x230 + x232 + x233 + x235
                           + x239 + x240 + x243 + x244 + x246 >= 1
 Duty_820409_on_day_5#195: x195 + x226 + x228 + x229 + x231 + x232 + x233
                           + x234 + x236 + x237 + x238 + x239 + x241 + x242
                           + x243 + x246 >= 1
 Duty_820410_on_day_5#196: x196 + x227 + x238 + x241 + x244 + x245 >= 1
 Duty_820411_on_day_5#197: x197 + x226 + x228 + x229 + x231 + x232 + x233
                           + x234 + x236 + x237 + x238 + x239 + x241 + x242
                           + x243 + x246 >= 1
 Duty_820404_on_day_5#198: x198 + x230 + x233 + x235 + x240 + x244 >= 1
 Duty_820405_on_day_5#199: x199 + x226 + x228 + x229 + x231 + x232 + x233
                           + x234 + x236 + x237 + x238 + x239 + x241 + x242
                           + x243 + x246 >= 1
 Duty_820406_on_day_5#200: x200 + x227 + x229 + x231 + x232 + x234 + x235
                           + x240 + x242 + x243 + x244 >= 1
 Duty_820407_on_day_5#201: x201 + x226 + x228 + x229 + x231 + x232 + x233
                           + x234 + x236 + x237 + x238 + x239 + x241 + x242
                           + x243 + x246 >= 1
 Duty_820401_on_day_5#202: x202 + x226 + x228 + x229 + x231 + x232 + x233
                           + x234 + x236 + x237 + x238 + x239 + x241 + x242
                           + x243 + x246 >= 1
 Duty_820402_on_day_5#203: x203 + x227 + x230 + x234 + x235 + x239 + x240
                           + x242 + x245 + x246 >= 1
 Duty_820403_on_day_5#204: x204 + x226 + x228 + x229 + x231 + x232 + x233
                           + x234 + x236 + x237 + x238 + x239 + x241 + x242
                           + x243 + x246 >= 1
 Duty_820521_on_day_6#205: x205 + x226 + x228 + x229 + x231 + x232 + x233
                           + x234 + x236 + x237 + x238 + x239 + x241 + x242
                           + x243 + x246 >= 1
 Duty_820523_on_day_6#206: x206 + x227 + x230 + x235 + x240 + x244 + x245 >= 1
 Duty_820517_on_day_6#207: x207 + x226 + x227 + x228 + x229 + x230 + x231
                           + x232 + x233 + x234 + x237 + x239 + x240 + x242
                           + x243 + x246 >= 1
 Duty_820519_on_day_6#208: x208 + x226 + x227 + x229 + x231 + x233 + x234
                           + x237 + x238 + x241 + x243 >= 1
 Duty_820512_on_day_6#209: x209 + x227 + x230 + x235 + x240 + x244 + x245 >= 1
 Duty_820513_on_day_6#210: x210 + x226 + x228 + x229 + x231 + x232 + x233
                           + x234 + x236 + x237 + x238 + x239 + x241 + x242
                           + x243 + x246 >= 1
 Duty_820514_on_day_6#211: x211 + x227 + x230 + x231 + x234 + x235 + x237
                           + x240 + x241 + x242 + x243 + x244 >= 1
 Duty_820515_on_day_6#212: x212 + x227 + x230 + x235 + x240 + x244 + x245 >= 1
 Duty_820508_on_day_6#213: x213 + x230 + x233 + x235 + x236 + x239 + x240
                           + x241 + x242 >= 1
 Duty_820509_on_day_6#214: x214 + x228 + x229 + x232 + x236 + x238 + x239
                           + x241 + x242 + x244 + x246 >= 1
 Duty_820510_on_day_6#215: x215 + x227 + x228 + x229 + x230 + x231 + x232
                           + x233 + x244 + x245 + x246 >= 1
 Duty_820511_on_day_6#216: x216 + x226 + x228 + x229 + x231 + x232 + x233
                           + x234 + x236 + x237 + x238 + x239 + x241 + x242
                           + x243 + x246 >= 1
 Duty_820504_on_day_6#217: x217 + x226 + x227 + x238 + x243 + x245 >= 1
 Duty_820505_on_day_6#218: x218 + x228 + x231 + x232 + x233 + x234 + x235
                           + x236 + x238 + x242 + x243 + x245 + x246 >= 1
 Duty_820506_on_day_6#219: x219 + x234 + x235 + x236 + x239 + x240 + x244
                           + x245 + x246 >= 1
 Duty_820507_on_day_6#220: x220 + x226 + x228 + x229 + x231 + x232 + x233
                           + x234 + x236 + x237 + x238 + x239 + x241 + x244
                           + x246 >= 1
 Duty_820501_on_day_6#221: x221 + x226 + x229 + x231 + x232 + x233 + x236
                           + x237 + x238 + x239 + x240 + x241 + x242 + x243
                           >= 1
 Duty_820502_on_day_6#222: x222 + x226 + x227 + x228 + x229 + x230 + x232
                           + x235 + x237 + x238 + x240 + x244 + x245 >= 1
 Duty_820503_on_day_6#223: x223 + x226 + x228 + x230 + x234 + x235 + x236
                           + x237 + x239 + x241 + x242 + x243 + x245 + x246
                           >= 1
 Contractgroup_0#224:      x224 + x226 + x228 + x229 + x231 + x232 + x233
                           + x234 + x236 + x237 + x238 + x239 + x241 + x242
                           + x243 + x246 >= 1
 Contractgroup_1#225:      x225 + x227 + x230 + x235 + x240 + x244 + x245 >= 1
End
